language Essence 1.3

letting blksize_delta be function(1 --> 7, 2 --> 7, 3 --> 7, 4 --> 7, 5 --> 7, 6 --> 7, 7 --> 7, 8 --> 7, 9 --> 7)
letting maxcars be function(1 --> 10, 2 --> 10, 3 --> 10, 4 --> 10, 5 --> 10, 6 --> 10, 7 --> 10, 8 --> 10, 9 --> 10)
letting n_cars be 265
letting n_classes be 80
letting n_options be 9
letting quantity be
        function(1 --> 3, 2 --> 3, 3 --> 3, 4 --> 3, 5 --> 3, 6 --> 3, 7 --> 9, 8 --> 3, 9 --> 22, 10 --> 3, 11 --> 3,
                 12 --> 3, 13 --> 3, 14 --> 3, 15 --> 3, 16 --> 3, 17 --> 3, 18 --> 3, 19 --> 3, 20 --> 3, 21 --> 3,
                 22 --> 3, 23 --> 3, 24 --> 3, 25 --> 3, 26 --> 3, 27 --> 3, 28 --> 3, 29 --> 3, 30 --> 3, 31 --> 3,
                 32 --> 3, 33 --> 3, 34 --> 3, 35 --> 3, 36 --> 3, 37 --> 3, 38 --> 3, 39 --> 3, 40 --> 3, 41 --> 3,
                 42 --> 3, 43 --> 3, 44 --> 3, 45 --> 3, 46 --> 3, 47 --> 3, 48 --> 3, 49 --> 3, 50 --> 3, 51 --> 3,
                 52 --> 3, 53 --> 3, 54 --> 3, 55 --> 3, 56 --> 3, 57 --> 3, 58 --> 3, 59 --> 3, 60 --> 3, 61 --> 3,
                 62 --> 3, 63 --> 3, 64 --> 3, 65 --> 3, 66 --> 3, 67 --> 3, 68 --> 3, 69 --> 3, 70 --> 3, 71 --> 3,
                 72 --> 3, 73 --> 3, 74 --> 3, 75 --> 3, 76 --> 3, 77 --> 3, 78 --> 3, 79 --> 3, 80 --> 3)
letting usage be
        relation((1, 2), (1, 5), (1, 6), (1, 7), (1, 8), (2, 9), (3, 1), (3, 3), (3, 4), (3, 7), (4, 9), (5, 1), (5, 3),
                 (5, 4), (5, 6), (5, 7), (6, 1), (6, 5), (7, 5), (7, 8), (7, 9), (8, 7), (9, 6), (9, 7), (9, 9),
                 (10, 5), (10, 7), (10, 8), (10, 9), (11, 2), (11, 5), (11, 6), (12, 6), (13, 9), (14, 1), (14, 3),
                 (14, 5), (15, 1), (15, 3), (15, 4), (15, 5), (15, 8), (16, 1), (16, 3), (16, 7), (17, 3), (17, 5),
                 (17, 9), (18, 3), (18, 5), (18, 6), (18, 8), (18, 9), (19, 4), (19, 8), (20, 2), (20, 3), (21, 4),
                 (22, 3), (22, 4), (22, 5), (22, 6), (23, 2), (23, 8), (24, 3), (24, 6), (24, 8), (25, 6), (25, 8),
                 (26, 1), (26, 3), (27, 4), (28, 2), (28, 3), (29, 8), (30, 2), (31, 5), (31, 6), (32, 1), (33, 2),
                 (33, 9), (34, 1), (34, 2), (34, 4), (35, 6), (36, 1), (36, 8), (36, 9), (37, 8), (37, 9), (38, 3),
                 (38, 5), (38, 9), (39, 6), (39, 8), (40, 1), (40, 2), (41, 3), (42, 1), (42, 3), (42, 5), (42, 9),
                 (43, 5), (44, 8), (45, 6), (45, 7), (45, 8), (46, 4), (47, 3), (48, 5), (49, 1), (49, 7), (50, 5),
                 (50, 6), (50, 8), (51, 2), (51, 4), (51, 8), (52, 2), (53, 9), (54, 2), (54, 3), (54, 6), (54, 9),
                 (55, 6), (55, 7), (56, 9), (57, 3), (57, 7), (57, 8), (58, 1), (58, 3), (58, 4), (58, 6), (59, 6),
                 (60, 6), (60, 8), (61, 8), (62, 3), (62, 6), (62, 8), (63, 6), (63, 8), (64, 3), (64, 8), (65, 2),
                 (65, 5), (65, 8), (66, 3), (66, 8), (66, 9), (67, 8), (68, 1), (68, 5), (68, 8), (69, 9), (70, 3),
                 (71, 1), (71, 8), (72, 1), (73, 4), (73, 5), (73, 6), (74, 1), (74, 2), (75, 2), (76, 1), (76, 3),
                 (76, 7), (77, 4), (77, 6), (78, 2), (79, 1), (79, 7), (80, 2))
$ Visualisation for usage
$  1  2
$  1  5
$  1  6
$  1  7
$  1  8
$  2  9
$  3  1
$  3  3
$  3  4
$  3  7
$  4  9
$  5  1
$  5  3
$  5  4
$  5  6
$  5  7
$  6  1
$  6  5
$  7  5
$  7  8
$  7  9
$  8  7
$  9  6
$  9  7
$  9  9
$ 10  5
$ 10  7
$ 10  8
$ 10  9
$ 11  2
$ 11  5
$ 11  6
$ 12  6
$ 13  9
$ 14  1
$ 14  3
$ 14  5
$ 15  1
$ 15  3
$ 15  4
$ 15  5
$ 15  8
$ 16  1
$ 16  3
$ 16  7
$ 17  3
$ 17  5
$ 17  9
$ 18  3
$ 18  5
$ 18  6
$ 18  8
$ 18  9
$ 19  4
$ 19  8
$ 20  2
$ 20  3
$ 21  4
$ 22  3
$ 22  4
$ 22  5
$ 22  6
$ 23  2
$ 23  8
$ 24  3
$ 24  6
$ 24  8
$ 25  6
$ 25  8
$ 26  1
$ 26  3
$ 27  4
$ 28  2
$ 28  3
$ 29  8
$ 30  2
$ 31  5
$ 31  6
$ 32  1
$ 33  2
$ 33  9
$ 34  1
$ 34  2
$ 34  4
$ 35  6
$ 36  1
$ 36  8
$ 36  9
$ 37  8
$ 37  9
$ 38  3
$ 38  5
$ 38  9
$ 39  6
$ 39  8
$ 40  1
$ 40  2
$ 41  3
$ 42  1
$ 42  3
$ 42  5
$ 42  9
$ 43  5
$ 44  8
$ 45  6
$ 45  7
$ 45  8
$ 46  4
$ 47  3
$ 48  5
$ 49  1
$ 49  7
$ 50  5
$ 50  6
$ 50  8
$ 51  2
$ 51  4
$ 51  8
$ 52  2
$ 53  9
$ 54  2
$ 54  3
$ 54  6
$ 54  9
$ 55  6
$ 55  7
$ 56  9
$ 57  3
$ 57  7
$ 57  8
$ 58  1
$ 58  3
$ 58  4
$ 58  6
$ 59  6
$ 60  6
$ 60  8
$ 61  8
$ 62  3
$ 62  6
$ 62  8
$ 63  6
$ 63  8
$ 64  3
$ 64  8
$ 65  2
$ 65  5
$ 65  8
$ 66  3
$ 66  8
$ 66  9
$ 67  8
$ 68  1
$ 68  5
$ 68  8
$ 69  9
$ 70  3
$ 71  1
$ 71  8
$ 72  1
$ 73  4
$ 73  5
$ 73  6
$ 74  1
$ 74  2
$ 75  2
$ 76  1
$ 76  3
$ 76  7
$ 77  4
$ 77  6
$ 78  2
$ 79  1
$ 79  7
$ 80  2

